 Li Mn O
1.0000000000
 +5.7693000000   +0.0000000000   +0.0000000000
 +0.0000000000   +5.7693000000   +0.0000000000
 +0.0000000000   +0.0000000000  +19.2477000000
  4  8  16
Selective dynamics
Cartesian
 +0.0000000000   +2.8846500000   +1.1284926500   T   T   T
 +2.8846500000   +2.8846500000   +3.1681714200   T   T   T
 +2.8846500000   +0.0000000000   +5.2080426700   T   T   T
 +0.0000000000   +0.0000000000   +7.2477214300   T   T   T
 +2.8846500000   +4.3269750000   +0.1085570300   T   T   T
 +2.8846500000   +1.4423250000   +0.1085570300   T   T   T
 +4.3269750000   +0.0000000000   +2.1484282700   T   T   T
 +1.4423250000   +0.0000000000   +2.1484282700   T   T   T
 +0.0000000000   +1.4423250000   +4.1881070400   T   T   T
 +0.0000000000   +4.3269750000   +4.1881070400   T   T   T
 +4.3269750000   +2.8846500000   +6.2277858100   T   T   T
 +1.4423250000   +2.8846500000   +6.2277858100   T   T   T
 +1.5959037700   +2.8846500000   +0.0000000000   T   T   T
 +4.1733962300   +2.8846500000   +0.0000000000   T   T   T
 +4.1733962300   +0.0000000000   +0.2171140600   T   T   T
 +1.5959037700   +0.0000000000   +0.2171140600   T   T   T
 +2.8846500000   +4.4805537700   +2.0396787700   T   T   T
 +2.8846500000   +1.2887462300   +2.0396787700   T   T   T
 +0.0000000000   +4.4805537700   +2.2569853000   T   T   T
 +0.0000000000   +1.2887462300   +2.2569853000   T   T   T
 +1.2887462300   +0.0000000000   +4.0795500100   T   T   T
 +4.4805537700   +0.0000000000   +4.0795500100   T   T   T
 +4.4805537700   +2.8846500000   +4.2966640700   T   T   T
 +1.2887462300   +2.8846500000   +4.2966640700   T   T   T
 +0.0000000000   +1.5959037700   +6.1192287800   T   T   T
 +0.0000000000   +4.1733962300   +6.1192287800   T   T   T
 +2.8846500000   +1.5959037700   +6.3363428400   T   T   T
 +2.8846500000   +4.1733962300   +6.3363428400   T   T   T
